Results/Experiment 1 Results/Existing Benchmark/RES_80/i-80-100-1.txt
solutions: 0 nodes: 2  modelTime: 122  solveTime: 24  totalTime: 155  modelSize: 7851  readTime: 9 matchingSize: 0
