Results/Experiment 2 Results/Existing Benchmark/i-80-100-1.lp
clingo version 5.4.0
Reading from tempSRTISolver.lp ...
Solving...
UNSATISFIABLE

Models       : 0
Calls        : 1
Time         : 28.821s (Solving: 2.26s 1st Model: 0.00s Unsat: 2.26s)
CPU Time     : 28.818s
